101804
67,76,14,70,62,80,26,36,66,20,77,9,71,54,46,45,73,29,10,1,64,13,37,18,21,48,5,19,24,31,65,50,4,52,41,39,63,53,59,68,44,22,82,75,40,32,74,58,17,56,7,27,33,11,16,38,2,30,35,28,8,83,79,6,61,78,69,15,25,42,55,23,12,3,43,57,34,49,47,60,81,72,51